; Copyright (c) 2026 The RIINA Authors. All rights reserved.
; Copyright (c) 2026 The RIINA Authors.
; Auto-generated from 02_FORMAL/coq/domains/DistributedSecurity.v (47 assertions)
; Generated by scripts/generate-full-stack.py
; Module: DistributedSecurity

(set-logic ALL)
(set-option :produce-models true)

; BFTConfig (matches Coq: Record BFTConfig)
(declare-datatypes ((BFTConfig 0))
  (((mk-bft_config (bft_total_nodes Int) (bft_faulty_tolerance Int) (bft_is_safe Bool)))))

; IdentityVerification (matches Coq: Record IdentityVerification)
(declare-datatypes ((IdentityVerification 0))
  (((mk-identity_verification (iv_proof_of_work_enabled Bool) (iv_identity_bound Bool) (iv_cost_per_identity Int)))))

; PeerConfig (matches Coq: Record PeerConfig)
(declare-datatypes ((PeerConfig 0))
  (((mk-peer_config (pc_total_peers Int) (pc_distinct_subnets Int) (pc_min_outbound Int) (pc_diverse Bool)))))

; RoutingProtocol (matches Coq: Record RoutingProtocol)
(declare-datatypes ((RoutingProtocol 0))
  (((mk-routing_protocol (rp_authenticated Bool) (rp_path_verified Bool) (rp_origin_validated Bool)))))

; ConsensusProtocol (matches Coq: Record ConsensusProtocol)
(declare-datatypes ((ConsensusProtocol 0))
  (((mk-consensus_protocol (cp_safety_proven Bool) (cp_liveness_proven Bool) (cp_finality_guaranteed Bool)))))

; SmartContract (matches Coq: Record SmartContract)
(declare-datatypes ((SmartContract 0))
  (((mk-smart_contract (sc_formally_verified Bool) (sc_invariants_proven Bool) (sc_no_overflow Bool)))))

; ReentrancyGuard (matches Coq: Record ReentrancyGuard)
(declare-datatypes ((ReentrancyGuard 0))
  (((mk-reentrancy_guard (rg_locked Bool) (rg_checks_before_effects Bool) (rg_interactions_last Bool)))))

; FairOrdering (matches Coq: Record FairOrdering)
(declare-datatypes ((FairOrdering 0))
  (((mk-fair_ordering (fo_commit_phase Bool) (fo_reveal_phase Bool) (fo_ordering_deterministic Bool)))))

; MEVProtection (matches Coq: Record MEVProtection)
(declare-datatypes ((MEVProtection 0))
  (((mk-mev_protection (mev_private_mempool Bool) (mev_fair_sequencing Bool) (mev_encrypted_transactions Bool)))))

; FlashLoanGuard (matches Coq: Record FlashLoanGuard)
(declare-datatypes ((FlashLoanGuard 0))
  (((mk-flash_loan_guard (fl_same_block_check Bool) (fl_balance_snapshot Bool) (fl_price_oracle_twap Bool)))))

; LogicalClock (matches Coq: Record LogicalClock)
(declare-datatypes ((LogicalClock 0))
  (((mk-logical_clock (lc_lamport_enabled Bool) (lc_vector_clock Bool) (lc_causality_preserved Bool)))))

; PartitionConfig (matches Coq: Record PartitionConfig)
(declare-datatypes ((PartitionConfig 0))
  (((mk-partition_config (pt_cap_aware Bool) (pt_partition_detection Bool) (pt_graceful_degradation Bool)))))

; ConsistencyProtocol (matches Coq: Record ConsistencyProtocol)
(declare-datatypes ((ConsistencyProtocol 0))
  (((mk-consistency_protocol (csp_linearizable Bool) (csp_state_machine_replication Bool) (csp_conflict_resolution Bool)))))

; LeaderConfig (matches Coq: Record LeaderConfig)
(declare-datatypes ((LeaderConfig 0))
  (((mk-leader_config (ldr_rotation_enabled Bool) (ldr_bft_election Bool) (ldr_term_bounded Bool)))))

; QuorumConfig (matches Coq: Record QuorumConfig)
(declare-datatypes ((QuorumConfig 0))
  (((mk-quorum_config (qc_quorum_size Int) (qc_total_nodes Int) (qc_intersection_guaranteed Bool)))))

; bft_valid (matches Coq: Definition bft_valid)
(define-fun bft_valid ((cfg BFTConfig)) Bool
  Nat)

; sybil_protected (matches Coq: Definition sybil_protected)
(define-fun sybil_protected ((iv IdentityVerification)) Bool
  true)

; eclipse_protected (matches Coq: Definition eclipse_protected)
(define-fun eclipse_protected ((pc PeerConfig)) Bool
  true)

; routing_secure (matches Coq: Definition routing_secure)
(define-fun routing_secure ((rp RoutingProtocol)) Bool
  (and (rp_authenticated rp) (rp_path_verified rp) (rp_origin_validated rp)))

; consensus_verified (matches Coq: Definition consensus_verified)
(define-fun consensus_verified ((cp ConsensusProtocol)) Bool
  (and (cp_safety_proven cp) (cp_liveness_proven cp)))

; contract_secure (matches Coq: Definition contract_secure)
(define-fun contract_secure ((sc SmartContract)) Bool
  (and (sc_formally_verified sc) (sc_invariants_proven sc) (sc_no_overflow sc)))

; reentrancy_protected (matches Coq: Definition reentrancy_protected)
(define-fun reentrancy_protected ((rg ReentrancyGuard)) Bool
  (and (rg_checks_before_effects rg) (rg_interactions_last rg)))

; frontrun_protected (matches Coq: Definition frontrun_protected)
(define-fun frontrun_protected ((fo FairOrdering)) Bool
  (and (fo_commit_phase fo) (fo_reveal_phase fo) (fo_ordering_deterministic fo)))

; mev_protected (matches Coq: Definition mev_protected)
(define-fun mev_protected ((mp MEVProtection)) Bool
  true)

; flashloan_protected (matches Coq: Definition flashloan_protected)
(define-fun flashloan_protected ((fl FlashLoanGuard)) Bool
  (and (fl_same_block_check fl) (fl_balance_snapshot fl)))

; clock_skew_protected (matches Coq: Definition clock_skew_protected)
(define-fun clock_skew_protected ((lc LogicalClock)) Bool
  true)

; splitbrain_protected (matches Coq: Definition splitbrain_protected)
(define-fun splitbrain_protected ((pt PartitionConfig)) Bool
  (and (pt_cap_aware pt) (pt_partition_detection pt)))

; consistency_verified (matches Coq: Definition consistency_verified)
(define-fun consistency_verified ((csp ConsistencyProtocol)) Bool
  (and (csp_linearizable csp) (csp_state_machine_replication csp)))

; leader_corruption_protected (matches Coq: Definition leader_corruption_protected)
(define-fun leader_corruption_protected ((ldr LeaderConfig)) Bool
  (and (ldr_rotation_enabled ldr) (ldr_bft_election ldr)))

; quorum_valid (matches Coq: Definition quorum_valid)
(define-fun quorum_valid ((qc QuorumConfig)) Bool
  true)

; andb_true_intro_3 (matches Coq: Lemma andb_true_intro_3)
(assert (= true true)) ; andb_true_intro_3 [untranslatable]

; andb_true_elim_l (matches Coq: Lemma andb_true_elim_l)
(assert (= true true)) ; andb_true_elim_l [untranslatable]

; andb_true_elim_r (matches Coq: Lemma andb_true_elim_r)
(assert (= true true)) ; andb_true_elim_r [untranslatable]

; orb_true_intro_l (matches Coq: Lemma orb_true_intro_l)
(assert (= true true)) ; orb_true_intro_l [untranslatable]

; orb_true_intro_r (matches Coq: Lemma orb_true_intro_r)
(assert (= true true)) ; orb_true_intro_r [untranslatable]

; dist_001_byzantine_failure_tolerated (matches Coq: Theorem dist_001_byzantine_failure_tolerated)
(assert (= true true)) ; dist_001_byzantine_failure_tolerated [untranslatable]

; dist_001_bft_safety_with_honest_majority (matches Coq: Theorem dist_001_bft_safety_with_honest_majority)
(assert (= true true)) ; dist_001_bft_safety_with_honest_majority [untranslatable]

; dist_001_bft_quorum_overlap (matches Coq: Theorem dist_001_bft_quorum_overlap)
(assert (= true true)) ; dist_001_bft_quorum_overlap [untranslatable]

; dist_002_sybil_attack_mitigated (matches Coq: Theorem dist_002_sybil_attack_mitigated)
(assert (= true true)) ; dist_002_sybil_attack_mitigated [untranslatable]

; dist_002_sybil_cost_scales_linearly (matches Coq: Theorem dist_002_sybil_cost_scales_linearly)
(assert (= true true)) ; dist_002_sybil_cost_scales_linearly [untranslatable]

; dist_003_eclipse_attack_mitigated (matches Coq: Theorem dist_003_eclipse_attack_mitigated)
(assert (= true true)) ; dist_003_eclipse_attack_mitigated [untranslatable]

; dist_003_peer_diversity_requirement (matches Coq: Theorem dist_003_peer_diversity_requirement)
(assert (= true true)) ; dist_003_peer_diversity_requirement [untranslatable]

; dist_004_routing_attack_mitigated (matches Coq: Theorem dist_004_routing_attack_mitigated)
(assert (forall ((rp RoutingProtocol)) (=> (= (rp_authenticated rp) true) (=> (= (rp_path_verified rp) true) (=> (= (rp_origin_validated rp) true) (= (routing_secure rp) true)))))) ; dist_004_routing_attack_mitigated

; dist_004_authenticated_routing_preserves_integrity (matches Coq: Theorem dist_004_authenticated_routing_preserves_integrity)
(assert (= true true)) ; dist_004_authenticated_routing_preserves_integrity [untranslatable]

; dist_005_consensus_attack_mitigated (matches Coq: Theorem dist_005_consensus_attack_mitigated)
(assert (forall ((cp ConsensusProtocol)) (=> (= (cp_safety_proven cp) true) (=> (= (cp_liveness_proven cp) true) (= (consensus_verified cp) true))))) ; dist_005_consensus_attack_mitigated

; dist_005_safety_implies_agreement_or_unsafe (matches Coq: Theorem dist_005_safety_implies_agreement_or_unsafe)
(assert (= true true)) ; dist_005_safety_implies_agreement_or_unsafe [untranslatable]

; dist_005_safety_agreement_model (matches Coq: Theorem dist_005_safety_agreement_model)
(assert (= true true)) ; dist_005_safety_agreement_model [untranslatable]

; dist_006_smart_contract_bug_mitigated (matches Coq: Theorem dist_006_smart_contract_bug_mitigated)
(assert (forall ((sc SmartContract)) (=> (= (sc_formally_verified sc) true) (=> (= (sc_invariants_proven sc) true) (=> (= (sc_no_overflow sc) true) (= (contract_secure sc) true)))))) ; dist_006_smart_contract_bug_mitigated

; dist_006_verified_contract_preserves_invariants (matches Coq: Theorem dist_006_verified_contract_preserves_invariants)
(assert (= true true)) ; dist_006_verified_contract_preserves_invariants [untranslatable]

; dist_007_reentrancy_mitigated (matches Coq: Theorem dist_007_reentrancy_mitigated)
(assert (forall ((rg ReentrancyGuard)) (=> (= (rg_checks_before_effects rg) true) (=> (= (rg_interactions_last rg) true) (= (reentrancy_protected rg) true))))) ; dist_007_reentrancy_mitigated

; dist_007_checks_effects_interactions_pattern (matches Coq: Theorem dist_007_checks_effects_interactions_pattern)
(assert (= true true)) ; dist_007_checks_effects_interactions_pattern [untranslatable]

; dist_007_locked_guard_prevents_reentry (matches Coq: Theorem dist_007_locked_guard_prevents_reentry)
(assert (forall ((is_locked Bool)) (=> (= is_locked true) (= (negb is_locked) false)))) ; dist_007_locked_guard_prevents_reentry

; dist_008_frontrunning_mitigated (matches Coq: Theorem dist_008_frontrunning_mitigated)
(assert (forall ((fo FairOrdering)) (=> (= (fo_commit_phase fo) true) (=> (= (fo_reveal_phase fo) true) (=> (= (fo_ordering_deterministic fo) true) (= (frontrun_protected fo) true)))))) ; dist_008_frontrunning_mitigated

; dist_008_commit_reveal_hides_intent (matches Coq: Theorem dist_008_commit_reveal_hides_intent)
(assert (= true true)) ; dist_008_commit_reveal_hides_intent [untranslatable]

; dist_009_mev_extraction_mitigated_private (matches Coq: Theorem dist_009_mev_extraction_mitigated_private)
(assert (forall ((mp MEVProtection)) (=> (= (mev_private_mempool mp) true) (= (mev_protected mp) true)))) ; dist_009_mev_extraction_mitigated_private

; dist_009_mev_extraction_mitigated_fair (matches Coq: Theorem dist_009_mev_extraction_mitigated_fair)
(assert (forall ((mp MEVProtection)) (=> (= (mev_fair_sequencing mp) true) (=> (= (mev_encrypted_transactions mp) true) (= (mev_protected mp) true))))) ; dist_009_mev_extraction_mitigated_fair

; dist_010_flashloan_attack_mitigated (matches Coq: Theorem dist_010_flashloan_attack_mitigated)
(assert (forall ((fl FlashLoanGuard)) (=> (= (fl_same_block_check fl) true) (=> (= (fl_balance_snapshot fl) true) (= (flashloan_protected fl) true))))) ; dist_010_flashloan_attack_mitigated

; dist_010_twap_oracle_resists_manipulation (matches Coq: Theorem dist_010_twap_oracle_resists_manipulation)
(assert (= true true)) ; dist_010_twap_oracle_resists_manipulation [untranslatable]

; dist_011_clock_skew_mitigated_lamport (matches Coq: Theorem dist_011_clock_skew_mitigated_lamport)
(assert (forall ((lc LogicalClock)) (=> (= (lc_lamport_enabled lc) true) (=> (= (lc_causality_preserved lc) true) (= (clock_skew_protected lc) true))))) ; dist_011_clock_skew_mitigated_lamport

; dist_011_clock_skew_mitigated_vector (matches Coq: Theorem dist_011_clock_skew_mitigated_vector)
(assert (forall ((lc LogicalClock)) (=> (= (lc_vector_clock lc) true) (=> (= (lc_causality_preserved lc) true) (= (clock_skew_protected lc) true))))) ; dist_011_clock_skew_mitigated_vector

; dist_011_lamport_clock_monotonic (matches Coq: Theorem dist_011_lamport_clock_monotonic)
(assert (= true true)) ; dist_011_lamport_clock_monotonic [untranslatable]

; dist_012_splitbrain_mitigated (matches Coq: Theorem dist_012_splitbrain_mitigated)
(assert (forall ((pt PartitionConfig)) (=> (= (pt_cap_aware pt) true) (=> (= (pt_partition_detection pt) true) (= (splitbrain_protected pt) true))))) ; dist_012_splitbrain_mitigated

; dist_012_cap_theorem_tradeoff (matches Coq: Theorem dist_012_cap_theorem_tradeoff)
(assert (= true true)) ; dist_012_cap_theorem_tradeoff [untranslatable]

; dist_012_cap_partition_choice (matches Coq: Theorem dist_012_cap_partition_choice)
(assert (forall ((partitioned Bool)) (=> (= partitioned true) (= partitioned true)))) ; dist_012_cap_partition_choice

; dist_013_state_inconsistency_mitigated (matches Coq: Theorem dist_013_state_inconsistency_mitigated)
(assert (forall ((csp ConsistencyProtocol)) (=> (= (csp_linearizable csp) true) (=> (= (csp_state_machine_replication csp) true) (= (consistency_verified csp) true))))) ; dist_013_state_inconsistency_mitigated

; dist_013_linearizability_implies_sequential (matches Coq: Theorem dist_013_linearizability_implies_sequential)
(assert (= true true)) ; dist_013_linearizability_implies_sequential [untranslatable]

; dist_014_leader_corruption_mitigated (matches Coq: Theorem dist_014_leader_corruption_mitigated)
(assert (forall ((ldr LeaderConfig)) (=> (= (ldr_rotation_enabled ldr) true) (=> (= (ldr_bft_election ldr) true) (= (leader_corruption_protected ldr) true))))) ; dist_014_leader_corruption_mitigated

; dist_014_rotation_limits_corruption_window (matches Coq: Theorem dist_014_rotation_limits_corruption_window)
(assert (= true true)) ; dist_014_rotation_limits_corruption_window [untranslatable]

; dist_014_bft_election_requires_quorum (matches Coq: Theorem dist_014_bft_election_requires_quorum)
(assert (= true true)) ; dist_014_bft_election_requires_quorum [untranslatable]

; dist_015_quorum_attack_mitigated (matches Coq: Theorem dist_015_quorum_attack_mitigated)
(assert (= true true)) ; dist_015_quorum_attack_mitigated [untranslatable]

; dist_015_quorum_intersection_guaranteed (matches Coq: Theorem dist_015_quorum_intersection_guaranteed)
(assert (= true true)) ; dist_015_quorum_intersection_guaranteed [untranslatable]

; dist_015_any_two_quorums_intersect (matches Coq: Theorem dist_015_any_two_quorums_intersect)
(assert (= true true)) ; dist_015_any_two_quorums_intersect [untranslatable]

; dist_015_majority_quorum_safety (matches Coq: Theorem dist_015_majority_quorum_safety)
(assert (= true true)) ; dist_015_majority_quorum_safety [untranslatable]

; dist_015_majority_always_intersects (matches Coq: Theorem dist_015_majority_always_intersects)
(assert (= true true)) ; dist_015_majority_always_intersects [untranslatable]

; distributed_security_bft_sybil_combined (matches Coq: Theorem distributed_security_bft_sybil_combined)
(assert (= true true)) ; distributed_security_bft_sybil_combined [untranslatable]

; distributed_security_consensus_consistency_combined (matches Coq: Theorem distributed_security_consensus_consistency_combined)
(assert (= true true)) ; distributed_security_consensus_consistency_combined [untranslatable]

; distributed_security_full_stack (matches Coq: Theorem distributed_security_full_stack)
(assert (= true true)) ; distributed_security_full_stack [untranslatable]

; Verify all assertions are satisfiable
(check-sat)
(exit)
